Maximize
  - 4.183455833708 edge_0_1_0_0 - 3.979424157015 edge_0_2_0_0
   - 1.7852908682213 edge_0_3_0_0 - 4.0542474196518 edge_0_4_0_0
   - 3.9857098139788 edge_0_5_0_0 - 2.4295989038702 edge_0_8_0_0
   - 1.1239251379221 edge_0_9_0_0 - 3.5832001914709 edge_0_10_0_0
   - 2.2933208502182 edge_0_13_0_0 - 2.9231562284419 edge_0_14_0_0
   - 2.0872751994234 edge_0_15_0_0 + 0.0641093350418265 edge_1_2_0_0
   + 0.1411285197730768 edge_1_3_0_0 + 0.3414734405027104 edge_1_4_0_0
   - 0.7312929992300706 edge_1_5_0_0 - 0.4087676337809848 edge_1_7_0_0
   - 0.2395779034133142 edge_1_8_0_0 - 0.8690124873041093 edge_1_9_0_0
   + 0.1892144682690377 edge_1_11_0_0 - 1.262425926948995 edge_1_12_0_0
   - 0.051560106255147 edge_2_1_0_0 + 0.851785 edge_2_3_0_0
   + 0.523569795382938 edge_2_4_0_0 + 0.36082519069668 edge_2_5_0_0
   + 0.2411820051866 edge_2_7_0_0 + 0.12008242709136 edge_2_8_0_0
   - 0.3321077488753773 edge_2_9_0_0 + 0.10767440722368 edge_2_10_0_0
   + 0.8704825800245475 edge_2_11_0_0 - 1.259938478630814 edge_2_13_0_0
   - 0.2836283925195051 edge_2_14_0_0 - 0.5897808230422595 edge_2_15_0_0
   + 1.920767327155128 edge_2_16_0_0 + 1.442094070096082 edge_3_1_0_0
   + 3.235650066011484 edge_3_2_0_0 + 2.633577574591537 edge_3_4_0_0
   + 0.2710199147052811 edge_3_5_0_0 + 0.0850603827956621 edge_3_7_0_0
   + 1.216905689063581 edge_3_8_0_0 + 0.5318914674471865 edge_3_9_0_0
   - 0.032729150944259 edge_3_10_0_0 + 0.5740987160001599 edge_3_11_0_0
   - 0.5182018011459599 edge_3_12_0_0 - 0.5115979665469332 edge_3_13_0_0
   + 0.4409663278505473 edge_3_14_0_0 - 0.5915966809621624 edge_3_15_0_0
   + 3.822183994709698 edge_3_16_0_0 - 1.111828143151783 edge_4_1_0_0
   - 0.7011429852195 edge_4_3_0_0 - 0.0914001730971181 edge_4_5_0_0
   - 0.6545015089866433 edge_4_7_0_0 - 0.0803227617715568 edge_4_8_0_0
   - 0.404612751071204 edge_4_9_0_0 - 0.8476927247352134 edge_4_14_0_0
   - 0.926695370200175 edge_5_1_0_0 - 0.4436106682084455 edge_5_2_0_0
   - 0.43588246389114 edge_5_3_0_0 - 0.0422413703689683 edge_5_4_0_0
   + 0.2562297047299988 edge_5_7_0_0 + 0.9212204134722617 edge_5_8_0_0
   + 0.8244375094819486 edge_5_9_0_0 - 0.7283344296030432 edge_5_10_0_0
   + 0.734036985246928 edge_5_11_0_0 - 0.7433179598096781 edge_5_12_0_0
   - 0.1458416741089704 edge_5_13_0_0 + 0.4297586510150908 edge_5_14_0_0
   - 0.2042957740636508 edge_5_15_0_0 + 0.7780336252400685 edge_5_16_0_0
   - 0.5231348063630934 edge_7_1_0_0 - 0.1765049971663768 edge_7_2_0_0
   - 0.4343642106652 edge_7_3_0_0 - 0.1080126330642372 edge_7_4_0_0
   + 0.1969910391085208 edge_7_5_0_0 - 0.2033849644960256 edge_7_8_0_0
   + 0.580881379302527 edge_7_9_0_0 + 0.120645433750947 edge_7_11_0_0
   - 0.8225159439236239 edge_7_12_0_0 + 0.0220354941837358 edge_7_13_0_0
   + 0.1937436707741841 edge_7_14_0_0 - 0.2394152310024281 edge_7_15_0_0
   + 0.2288819996557005 edge_7_16_0_0 + 0.1069083684017334 edge_8_1_0_0
   + 0.050917628782144 edge_8_2_0_0 + 0.3167292682083253 edge_8_3_0_0
   + 0.6324903372896834 edge_8_4_0_0 + 2.51169187043531 edge_8_5_0_0
   + 1.811268379273801 edge_8_7_0_0 + 2.205312351885254 edge_8_9_0_0
   + 2.373708528828171 edge_8_10_0_0 + 2.272024502186763 edge_8_11_0_0
   - 0.0050826170540474 edge_8_12_0_0 + 0.4694925187426007 edge_8_13_0_0
   + 2.038350237150141 edge_8_14_0_0 + 0.6206074181624187 edge_8_15_0_0
   + 4.626571806019593 edge_8_16_0_0 + 0.322375270029332 edge_9_1_0_0
   + 0.3847864000923392 edge_9_2_0_0 + 0.1238074651167266 edge_9_3_0_0
   - 0.0933625184490017 edge_9_4_0_0 + 0.7404047371454963 edge_9_5_0_0
   + 1.48039932619083 edge_9_7_0_0 + 0.6636410615832367 edge_9_8_0_0
   + 0.8707747624833893 edge_9_9_0_0 + 0.3623102700464569 edge_9_10_0_0
   + 0.7053771963080973 edge_9_11_0_0 + 0.0992615954042954 edge_9_12_0_0
   + 0.16326548619649 edge_9_13_0_0 + 0.5429082320608921 edge_9_14_0_0
   + 0.0233968372157506 edge_9_15_0_0 + 0.5869027451762125 edge_9_16_0_0
   + 0.1527916626391239 edge_10_1_0_0 + 0.36271779989654 edge_10_2_0_0
   + 0.58237076170933 edge_10_3_0_0 - 0.281616309767233 edge_10_4_0_0
   + 1.70889102008721 edge_10_5_0_0 + 1.380177858261884 edge_10_7_0_0
   + 1.440701839621142 edge_10_8_0_0 + 1.127121277128292 edge_10_9_0_0
   + 2.061765008804905 edge_10_11_0_0 + 0.4184855343411375 edge_10_12_0_0
   + 0.1092665999459882 edge_10_13_0_0 + 0.8268597626522666 edge_10_14_0_0
   + 0.087781929846508 edge_10_15_0_0 + 3.2130893386361 edge_10_16_0_0
   - 0.613795674463782 edge_11_7_0_0 - 0.4455015129471598 edge_11_9_0_0
   + 0.0888581079901015 edge_11_12_0_0 - 0.1861031774888364 edge_11_13_0_0
   - 0.0115159459262217 edge_11_14_0_0 - 0.6022941456473014 edge_11_15_0_0
   - 0.1615855980071887 edge_12_9_0_0 + 0.1855789060106709 edge_12_11_0_0
   + 0.2455814769858337 edge_12_13_0_0 + 0.0612221609196236 edge_12_15_0_0
   - 0.1843043972007053 edge_13_1_0_0 - 0.5924928316999999 edge_13_2_0_0
   - 1.053878650966745 edge_13_3_0_0 - 0.6739541255647847 edge_13_4_0_0
   - 0.0888623032802676 edge_13_5_0_0 + 0.0475753858015628 edge_13_7_0_0
   - 0.290370312679088 edge_13_8_0_0 + 0.0146361447515721 edge_13_9_0_0
   + 0.1185858815879377 edge_13_10_0_0 + 0.0212287230777399 edge_13_11_0_0
   + 0.3358926657472677 edge_13_12_0_0 + 0.6529317897898971 edge_13_13_0_0
   + 1.952092893730676 edge_13_14_0_0 + 0.7952120421387111 edge_13_15_0_0
   + 0.6211573113070239 edge_13_16_0_0 + 0.1201298571565237 edge_14_1_0_0
   - 0.2829730551815756 edge_14_2_0_0 - 0.0207516269528803 edge_14_3_0_0
   - 0.5394692963538803 edge_14_4_0_0 + 0.4629802823189079 edge_14_5_0_0
   + 0.5733527785094773 edge_14_7_0_0 + 0.603923536750368 edge_14_8_0_0
   + 0.3440755472848304 edge_14_9_0_0 + 1.415434000531445 edge_14_11_0_0
   + 1.248922653127541 edge_14_12_0_0 + 2.292455365774942 edge_14_13_0_0
   + 2.291782866882592 edge_14_15_0_0 + 3.798145897999053 edge_14_16_0_0
   + 0.00309184488390021 edge_15_1_0_0 - 0.1880156027511 edge_15_2_0_0
   - 0.4944607282062 edge_15_3_0_0 - 0.3621232682525391 edge_15_4_0_0
   + 0.29319234852146 edge_15_5_0_0 + 0.2577363678167708 edge_15_7_0_0
   - 0.1820404015836052 edge_15_8_0_0 + 0.0803140986482586 edge_15_9_0_0
   + 0.1898097733165692 edge_15_10_0_0 + 0.288762571598469 edge_15_11_0_0
   + 0.6243738010395395 edge_15_12_0_0 + 1.160018033552074 edge_15_13_0_0
   + 1.319444292100627 edge_15_14_0_0 + 0.9499170518460001 edge_15_16_0_0
Subject To
 one_parent_1: edge_0_1_0_0 + edge_2_1_0_0 + edge_3_1_0_0 + edge_4_1_0_0
   + edge_5_1_0_0 + edge_7_1_0_0 + edge_8_1_0_0 + edge_9_1_0_0
   + edge_10_1_0_0 + edge_13_1_0_0 + edge_14_1_0_0 + edge_15_1_0_0 = 1
 consume_one_flow_unit_1: flow_0_1_0_0 - flow_1_2_0_0 - flow_1_3_0_0
   - flow_1_4_0_0 - flow_1_5_0_0 - flow_1_7_0_0 - flow_1_8_0_0
   - flow_1_9_0_0 - flow_1_11_0_0 - flow_1_12_0_0 + flow_2_1_0_0
   + flow_3_1_0_0 + flow_4_1_0_0 + flow_5_1_0_0 + flow_7_1_0_0
   + flow_8_1_0_0 + flow_9_1_0_0 + flow_10_1_0_0 + flow_13_1_0_0
   + flow_14_1_0_0 + flow_15_1_0_0 = 1
 one_parent_2: edge_0_2_0_0 + edge_1_2_0_0 + edge_3_2_0_0 + edge_5_2_0_0
   + edge_7_2_0_0 + edge_8_2_0_0 + edge_9_2_0_0 + edge_10_2_0_0
   + edge_13_2_0_0 + edge_14_2_0_0 + edge_15_2_0_0 = 1
 consume_one_flow_unit_2: flow_0_2_0_0 + flow_1_2_0_0 - flow_2_1_0_0
   - flow_2_3_0_0 - flow_2_4_0_0 - flow_2_5_0_0 - flow_2_7_0_0
   - flow_2_8_0_0 - flow_2_9_0_0 - flow_2_10_0_0 - flow_2_11_0_0
   - flow_2_13_0_0 - flow_2_14_0_0 - flow_2_15_0_0 - flow_2_16_0_0
   + flow_3_2_0_0 + flow_5_2_0_0 + flow_7_2_0_0 + flow_8_2_0_0
   + flow_9_2_0_0 + flow_10_2_0_0 + flow_13_2_0_0 + flow_14_2_0_0
   + flow_15_2_0_0 = 1
 one_parent_3: edge_0_3_0_0 + edge_1_3_0_0 + edge_2_3_0_0 + edge_4_3_0_0
   + edge_5_3_0_0 + edge_7_3_0_0 + edge_8_3_0_0 + edge_9_3_0_0
   + edge_10_3_0_0 + edge_13_3_0_0 + edge_14_3_0_0 + edge_15_3_0_0 = 1
 consume_one_flow_unit_3: flow_0_3_0_0 + flow_1_3_0_0 + flow_2_3_0_0
   - flow_3_1_0_0 - flow_3_2_0_0 - flow_3_4_0_0 - flow_3_5_0_0
   - flow_3_7_0_0 - flow_3_8_0_0 - flow_3_9_0_0 - flow_3_10_0_0
   - flow_3_11_0_0 - flow_3_12_0_0 - flow_3_13_0_0 - flow_3_14_0_0
   - flow_3_15_0_0 - flow_3_16_0_0 + flow_4_3_0_0 + flow_5_3_0_0
   + flow_7_3_0_0 + flow_8_3_0_0 + flow_9_3_0_0 + flow_10_3_0_0
   + flow_13_3_0_0 + flow_14_3_0_0 + flow_15_3_0_0 = 1
 one_parent_4: edge_0_4_0_0 + edge_1_4_0_0 + edge_2_4_0_0 + edge_3_4_0_0
   + edge_5_4_0_0 + edge_7_4_0_0 + edge_8_4_0_0 + edge_9_4_0_0
   + edge_10_4_0_0 + edge_13_4_0_0 + edge_14_4_0_0 + edge_15_4_0_0 = 1
 consume_one_flow_unit_4: flow_0_4_0_0 + flow_1_4_0_0 + flow_2_4_0_0
   + flow_3_4_0_0 - flow_4_1_0_0 - flow_4_3_0_0 - flow_4_5_0_0
   - flow_4_7_0_0 - flow_4_8_0_0 - flow_4_9_0_0 - flow_4_14_0_0
   + flow_5_4_0_0 + flow_7_4_0_0 + flow_8_4_0_0 + flow_9_4_0_0
   + flow_10_4_0_0 + flow_13_4_0_0 + flow_14_4_0_0 + flow_15_4_0_0 = 1
 one_parent_5: edge_0_5_0_0 + edge_1_5_0_0 + edge_2_5_0_0 + edge_3_5_0_0
   + edge_4_5_0_0 + edge_7_5_0_0 + edge_8_5_0_0 + edge_9_5_0_0
   + edge_10_5_0_0 + edge_13_5_0_0 + edge_14_5_0_0 + edge_15_5_0_0 = 1
 consume_one_flow_unit_5: flow_0_5_0_0 + flow_1_5_0_0 + flow_2_5_0_0
   + flow_3_5_0_0 + flow_4_5_0_0 - flow_5_1_0_0 - flow_5_2_0_0
   - flow_5_3_0_0 - flow_5_4_0_0 - flow_5_7_0_0 - flow_5_8_0_0
   - flow_5_9_0_0 - flow_5_10_0_0 - flow_5_11_0_0 - flow_5_12_0_0
   - flow_5_13_0_0 - flow_5_14_0_0 - flow_5_15_0_0 - flow_5_16_0_0
   + flow_7_5_0_0 + flow_8_5_0_0 + flow_9_5_0_0 + flow_10_5_0_0
   + flow_13_5_0_0 + flow_14_5_0_0 + flow_15_5_0_0 = 1
 one_parent_6: = 1
 consume_one_flow_unit_6: = 1
 one_parent_7: edge_1_7_0_0 + edge_2_7_0_0 + edge_3_7_0_0 + edge_4_7_0_0
   + edge_5_7_0_0 + edge_8_7_0_0 + edge_9_7_0_0 + edge_10_7_0_0
   + edge_11_7_0_0 + edge_13_7_0_0 + edge_14_7_0_0 + edge_15_7_0_0 = 1
 consume_one_flow_unit_7: flow_1_7_0_0 + flow_2_7_0_0 + flow_3_7_0_0
   + flow_4_7_0_0 + flow_5_7_0_0 - flow_7_1_0_0 - flow_7_2_0_0
   - flow_7_3_0_0 - flow_7_4_0_0 - flow_7_5_0_0 - flow_7_8_0_0
   - flow_7_9_0_0 - flow_7_11_0_0 - flow_7_12_0_0 - flow_7_13_0_0
   - flow_7_14_0_0 - flow_7_15_0_0 - flow_7_16_0_0 + flow_8_7_0_0
   + flow_9_7_0_0 + flow_10_7_0_0 + flow_11_7_0_0 + flow_13_7_0_0
   + flow_14_7_0_0 + flow_15_7_0_0 = 1
 one_parent_8: edge_0_8_0_0 + edge_1_8_0_0 + edge_2_8_0_0 + edge_3_8_0_0
   + edge_4_8_0_0 + edge_5_8_0_0 + edge_7_8_0_0 + edge_9_8_0_0
   + edge_10_8_0_0 + edge_13_8_0_0 + edge_14_8_0_0 + edge_15_8_0_0 = 1
 consume_one_flow_unit_8: flow_0_8_0_0 + flow_1_8_0_0 + flow_2_8_0_0
   + flow_3_8_0_0 + flow_4_8_0_0 + flow_5_8_0_0 + flow_7_8_0_0
   - flow_8_1_0_0 - flow_8_2_0_0 - flow_8_3_0_0 - flow_8_4_0_0
   - flow_8_5_0_0 - flow_8_7_0_0 - flow_8_9_0_0 - flow_8_10_0_0
   - flow_8_11_0_0 - flow_8_12_0_0 - flow_8_13_0_0 - flow_8_14_0_0
   - flow_8_15_0_0 - flow_8_16_0_0 + flow_9_8_0_0 + flow_10_8_0_0
   + flow_13_8_0_0 + flow_14_8_0_0 + flow_15_8_0_0 = 1
 one_parent_9: edge_0_9_0_0 + edge_1_9_0_0 + edge_2_9_0_0 + edge_3_9_0_0
   + edge_4_9_0_0 + edge_5_9_0_0 + edge_7_9_0_0 + edge_8_9_0_0
   + edge_9_9_0_0 + edge_10_9_0_0 + edge_11_9_0_0 + edge_12_9_0_0
   + edge_13_9_0_0 + edge_14_9_0_0 + edge_15_9_0_0 = 1
 consume_one_flow_unit_9: flow_0_9_0_0 + flow_1_9_0_0 + flow_2_9_0_0
   + flow_3_9_0_0 + flow_4_9_0_0 + flow_5_9_0_0 + flow_7_9_0_0
   + flow_8_9_0_0 - flow_9_1_0_0 - flow_9_2_0_0 - flow_9_3_0_0
   - flow_9_4_0_0 - flow_9_5_0_0 - flow_9_7_0_0 - flow_9_8_0_0
   - flow_9_10_0_0 - flow_9_11_0_0 - flow_9_12_0_0 - flow_9_13_0_0
   - flow_9_14_0_0 - flow_9_15_0_0 - flow_9_16_0_0 + flow_10_9_0_0
   + flow_11_9_0_0 + flow_12_9_0_0 + flow_13_9_0_0 + flow_14_9_0_0
   + flow_15_9_0_0 = 1
 one_parent_10: edge_0_10_0_0 + edge_2_10_0_0 + edge_3_10_0_0
   + edge_5_10_0_0 + edge_8_10_0_0 + edge_9_10_0_0 + edge_13_10_0_0
   + edge_15_10_0_0 = 1
 consume_one_flow_unit_10: flow_0_10_0_0 + flow_2_10_0_0 + flow_3_10_0_0
   + flow_5_10_0_0 + flow_8_10_0_0 + flow_9_10_0_0 - flow_10_1_0_0
   - flow_10_2_0_0 - flow_10_3_0_0 - flow_10_4_0_0 - flow_10_5_0_0
   - flow_10_7_0_0 - flow_10_8_0_0 - flow_10_9_0_0 - flow_10_11_0_0
   - flow_10_12_0_0 - flow_10_13_0_0 - flow_10_14_0_0 - flow_10_15_0_0
   - flow_10_16_0_0 + flow_13_10_0_0 + flow_15_10_0_0 = 1
 one_parent_11: edge_1_11_0_0 + edge_2_11_0_0 + edge_3_11_0_0
   + edge_5_11_0_0 + edge_7_11_0_0 + edge_8_11_0_0 + edge_9_11_0_0
   + edge_10_11_0_0 + edge_12_11_0_0 + edge_13_11_0_0 + edge_14_11_0_0
   + edge_15_11_0_0 = 1
 consume_one_flow_unit_11: flow_1_11_0_0 + flow_2_11_0_0 + flow_3_11_0_0
   + flow_5_11_0_0 + flow_7_11_0_0 + flow_8_11_0_0 + flow_9_11_0_0
   + flow_10_11_0_0 - flow_11_7_0_0 - flow_11_9_0_0 - flow_11_12_0_0
   - flow_11_13_0_0 - flow_11_14_0_0 - flow_11_15_0_0 + flow_12_11_0_0
   + flow_13_11_0_0 + flow_14_11_0_0 + flow_15_11_0_0 = 1
 one_parent_12: edge_1_12_0_0 + edge_3_12_0_0 + edge_5_12_0_0
   + edge_7_12_0_0 + edge_8_12_0_0 + edge_9_12_0_0 + edge_10_12_0_0
   + edge_11_12_0_0 + edge_13_12_0_0 + edge_14_12_0_0 + edge_15_12_0_0 = 1
 consume_one_flow_unit_12: flow_1_12_0_0 + flow_3_12_0_0 + flow_5_12_0_0
   + flow_7_12_0_0 + flow_8_12_0_0 + flow_9_12_0_0 + flow_10_12_0_0
   + flow_11_12_0_0 - flow_12_9_0_0 - flow_12_11_0_0 - flow_12_13_0_0
   - flow_12_15_0_0 + flow_13_12_0_0 + flow_14_12_0_0 + flow_15_12_0_0 = 1
 one_parent_13: edge_0_13_0_0 + edge_2_13_0_0 + edge_3_13_0_0
   + edge_5_13_0_0 + edge_7_13_0_0 + edge_8_13_0_0 + edge_9_13_0_0
   + edge_10_13_0_0 + edge_11_13_0_0 + edge_12_13_0_0 + edge_13_13_0_0
   + edge_14_13_0_0 + edge_15_13_0_0 = 1
 consume_one_flow_unit_13: flow_0_13_0_0 + flow_2_13_0_0 + flow_3_13_0_0
   + flow_5_13_0_0 + flow_7_13_0_0 + flow_8_13_0_0 + flow_9_13_0_0
   + flow_10_13_0_0 + flow_11_13_0_0 + flow_12_13_0_0 - flow_13_1_0_0
   - flow_13_2_0_0 - flow_13_3_0_0 - flow_13_4_0_0 - flow_13_5_0_0
   - flow_13_7_0_0 - flow_13_8_0_0 - flow_13_9_0_0 - flow_13_10_0_0
   - flow_13_11_0_0 - flow_13_12_0_0 - flow_13_14_0_0 - flow_13_15_0_0
   - flow_13_16_0_0 + flow_14_13_0_0 + flow_15_13_0_0 = 1
 one_parent_14: edge_0_14_0_0 + edge_2_14_0_0 + edge_3_14_0_0
   + edge_4_14_0_0 + edge_5_14_0_0 + edge_7_14_0_0 + edge_8_14_0_0
   + edge_9_14_0_0 + edge_10_14_0_0 + edge_11_14_0_0 + edge_13_14_0_0
   + edge_15_14_0_0 = 1
 consume_one_flow_unit_14: flow_0_14_0_0 + flow_2_14_0_0 + flow_3_14_0_0
   + flow_4_14_0_0 + flow_5_14_0_0 + flow_7_14_0_0 + flow_8_14_0_0
   + flow_9_14_0_0 + flow_10_14_0_0 + flow_11_14_0_0 + flow_13_14_0_0
   - flow_14_1_0_0 - flow_14_2_0_0 - flow_14_3_0_0 - flow_14_4_0_0
   - flow_14_5_0_0 - flow_14_7_0_0 - flow_14_8_0_0 - flow_14_9_0_0
   - flow_14_11_0_0 - flow_14_12_0_0 - flow_14_13_0_0 - flow_14_15_0_0
   - flow_14_16_0_0 + flow_15_14_0_0 = 1
 one_parent_15: edge_0_15_0_0 + edge_2_15_0_0 + edge_3_15_0_0
   + edge_5_15_0_0 + edge_7_15_0_0 + edge_8_15_0_0 + edge_9_15_0_0
   + edge_10_15_0_0 + edge_11_15_0_0 + edge_12_15_0_0 + edge_13_15_0_0
   + edge_14_15_0_0 = 1
 consume_one_flow_unit_15: flow_0_15_0_0 + flow_2_15_0_0 + flow_3_15_0_0
   + flow_5_15_0_0 + flow_7_15_0_0 + flow_8_15_0_0 + flow_9_15_0_0
   + flow_10_15_0_0 + flow_11_15_0_0 + flow_12_15_0_0 + flow_13_15_0_0
   + flow_14_15_0_0 - flow_15_1_0_0 - flow_15_2_0_0 - flow_15_3_0_0
   - flow_15_4_0_0 - flow_15_5_0_0 - flow_15_7_0_0 - flow_15_8_0_0
   - flow_15_9_0_0 - flow_15_10_0_0 - flow_15_11_0_0 - flow_15_12_0_0
   - flow_15_13_0_0 - flow_15_14_0_0 - flow_15_16_0_0 = 1
 one_parent_16: edge_2_16_0_0 + edge_3_16_0_0 + edge_5_16_0_0
   + edge_7_16_0_0 + edge_8_16_0_0 + edge_9_16_0_0 + edge_10_16_0_0
   + edge_13_16_0_0 + edge_14_16_0_0 + edge_15_16_0_0 = 1
 consume_one_flow_unit_16: flow_2_16_0_0 + flow_3_16_0_0 + flow_5_16_0_0
   + flow_7_16_0_0 + flow_8_16_0_0 + flow_9_16_0_0 + flow_10_16_0_0
   + flow_13_16_0_0 + flow_14_16_0_0 + flow_15_16_0_0 = 1
 root_flow: flow_0_1_0_0 + flow_0_2_0_0 + flow_0_3_0_0 + flow_0_4_0_0
   + flow_0_5_0_0 + flow_0_8_0_0 + flow_0_9_0_0 + flow_0_10_0_0
   + flow_0_13_0_0 + flow_0_14_0_0 + flow_0_15_0_0 = 16
 inactive_no_flow_0_1_0_0: flow_0_1_0_0 - 1000 edge_0_1_0_0 <= 0
 inactive_no_flow_0_2_0_0: flow_0_2_0_0 - 1000 edge_0_2_0_0 <= 0
 inactive_no_flow_0_3_0_0: flow_0_3_0_0 - 1000 edge_0_3_0_0 <= 0
 inactive_no_flow_0_4_0_0: flow_0_4_0_0 - 1000 edge_0_4_0_0 <= 0
 inactive_no_flow_0_5_0_0: flow_0_5_0_0 - 1000 edge_0_5_0_0 <= 0
 inactive_no_flow_0_8_0_0: flow_0_8_0_0 - 1000 edge_0_8_0_0 <= 0
 inactive_no_flow_0_9_0_0: flow_0_9_0_0 - 1000 edge_0_9_0_0 <= 0
 inactive_no_flow_0_10_0_0: flow_0_10_0_0 - 1000 edge_0_10_0_0 <= 0
 inactive_no_flow_0_13_0_0: flow_0_13_0_0 - 1000 edge_0_13_0_0 <= 0
 inactive_no_flow_0_14_0_0: flow_0_14_0_0 - 1000 edge_0_14_0_0 <= 0
 inactive_no_flow_0_15_0_0: flow_0_15_0_0 - 1000 edge_0_15_0_0 <= 0
 inactive_no_flow_1_2_0_0: flow_1_2_0_0 - 1000 edge_1_2_0_0 <= 0
 inactive_no_flow_1_3_0_0: flow_1_3_0_0 - 1000 edge_1_3_0_0 <= 0
 inactive_no_flow_1_4_0_0: flow_1_4_0_0 - 1000 edge_1_4_0_0 <= 0
 inactive_no_flow_1_5_0_0: flow_1_5_0_0 - 1000 edge_1_5_0_0 <= 0
 inactive_no_flow_1_7_0_0: flow_1_7_0_0 - 1000 edge_1_7_0_0 <= 0
 inactive_no_flow_1_8_0_0: flow_1_8_0_0 - 1000 edge_1_8_0_0 <= 0
 inactive_no_flow_1_9_0_0: flow_1_9_0_0 - 1000 edge_1_9_0_0 <= 0
 inactive_no_flow_1_11_0_0: flow_1_11_0_0 - 1000 edge_1_11_0_0 <= 0
 inactive_no_flow_1_12_0_0: flow_1_12_0_0 - 1000 edge_1_12_0_0 <= 0
 inactive_no_flow_2_1_0_0: flow_2_1_0_0 - 1000 edge_2_1_0_0 <= 0
 inactive_no_flow_2_3_0_0: flow_2_3_0_0 - 1000 edge_2_3_0_0 <= 0
 inactive_no_flow_2_4_0_0: flow_2_4_0_0 - 1000 edge_2_4_0_0 <= 0
 inactive_no_flow_2_5_0_0: flow_2_5_0_0 - 1000 edge_2_5_0_0 <= 0
 inactive_no_flow_2_7_0_0: flow_2_7_0_0 - 1000 edge_2_7_0_0 <= 0
 inactive_no_flow_2_8_0_0: flow_2_8_0_0 - 1000 edge_2_8_0_0 <= 0
 inactive_no_flow_2_9_0_0: flow_2_9_0_0 - 1000 edge_2_9_0_0 <= 0
 inactive_no_flow_2_10_0_0: flow_2_10_0_0 - 1000 edge_2_10_0_0 <= 0
 inactive_no_flow_2_11_0_0: flow_2_11_0_0 - 1000 edge_2_11_0_0 <= 0
 inactive_no_flow_2_13_0_0: flow_2_13_0_0 - 1000 edge_2_13_0_0 <= 0
 inactive_no_flow_2_14_0_0: flow_2_14_0_0 - 1000 edge_2_14_0_0 <= 0
 inactive_no_flow_2_15_0_0: flow_2_15_0_0 - 1000 edge_2_15_0_0 <= 0
 inactive_no_flow_2_16_0_0: flow_2_16_0_0 - 1000 edge_2_16_0_0 <= 0
 inactive_no_flow_3_1_0_0: flow_3_1_0_0 - 1000 edge_3_1_0_0 <= 0
 inactive_no_flow_3_2_0_0: flow_3_2_0_0 - 1000 edge_3_2_0_0 <= 0
 inactive_no_flow_3_4_0_0: flow_3_4_0_0 - 1000 edge_3_4_0_0 <= 0
 inactive_no_flow_3_5_0_0: flow_3_5_0_0 - 1000 edge_3_5_0_0 <= 0
 inactive_no_flow_3_7_0_0: flow_3_7_0_0 - 1000 edge_3_7_0_0 <= 0
 inactive_no_flow_3_8_0_0: flow_3_8_0_0 - 1000 edge_3_8_0_0 <= 0
 inactive_no_flow_3_9_0_0: flow_3_9_0_0 - 1000 edge_3_9_0_0 <= 0
 inactive_no_flow_3_10_0_0: flow_3_10_0_0 - 1000 edge_3_10_0_0 <= 0
 inactive_no_flow_3_11_0_0: flow_3_11_0_0 - 1000 edge_3_11_0_0 <= 0
 inactive_no_flow_3_12_0_0: flow_3_12_0_0 - 1000 edge_3_12_0_0 <= 0
 inactive_no_flow_3_13_0_0: flow_3_13_0_0 - 1000 edge_3_13_0_0 <= 0
 inactive_no_flow_3_14_0_0: flow_3_14_0_0 - 1000 edge_3_14_0_0 <= 0
 inactive_no_flow_3_15_0_0: flow_3_15_0_0 - 1000 edge_3_15_0_0 <= 0
 inactive_no_flow_3_16_0_0: flow_3_16_0_0 - 1000 edge_3_16_0_0 <= 0
 inactive_no_flow_4_1_0_0: flow_4_1_0_0 - 1000 edge_4_1_0_0 <= 0
 inactive_no_flow_4_3_0_0: flow_4_3_0_0 - 1000 edge_4_3_0_0 <= 0
 inactive_no_flow_4_5_0_0: flow_4_5_0_0 - 1000 edge_4_5_0_0 <= 0
 inactive_no_flow_4_7_0_0: flow_4_7_0_0 - 1000 edge_4_7_0_0 <= 0
 inactive_no_flow_4_8_0_0: flow_4_8_0_0 - 1000 edge_4_8_0_0 <= 0
 inactive_no_flow_4_9_0_0: flow_4_9_0_0 - 1000 edge_4_9_0_0 <= 0
 inactive_no_flow_4_14_0_0: flow_4_14_0_0 - 1000 edge_4_14_0_0 <= 0
 inactive_no_flow_5_1_0_0: flow_5_1_0_0 - 1000 edge_5_1_0_0 <= 0
 inactive_no_flow_5_2_0_0: flow_5_2_0_0 - 1000 edge_5_2_0_0 <= 0
 inactive_no_flow_5_3_0_0: flow_5_3_0_0 - 1000 edge_5_3_0_0 <= 0
 inactive_no_flow_5_4_0_0: flow_5_4_0_0 - 1000 edge_5_4_0_0 <= 0
 inactive_no_flow_5_7_0_0: flow_5_7_0_0 - 1000 edge_5_7_0_0 <= 0
 inactive_no_flow_5_8_0_0: flow_5_8_0_0 - 1000 edge_5_8_0_0 <= 0
 inactive_no_flow_5_9_0_0: flow_5_9_0_0 - 1000 edge_5_9_0_0 <= 0
 inactive_no_flow_5_10_0_0: flow_5_10_0_0 - 1000 edge_5_10_0_0 <= 0
 inactive_no_flow_5_11_0_0: flow_5_11_0_0 - 1000 edge_5_11_0_0 <= 0
 inactive_no_flow_5_12_0_0: flow_5_12_0_0 - 1000 edge_5_12_0_0 <= 0
 inactive_no_flow_5_13_0_0: flow_5_13_0_0 - 1000 edge_5_13_0_0 <= 0
 inactive_no_flow_5_14_0_0: flow_5_14_0_0 - 1000 edge_5_14_0_0 <= 0
 inactive_no_flow_5_15_0_0: flow_5_15_0_0 - 1000 edge_5_15_0_0 <= 0
 inactive_no_flow_5_16_0_0: flow_5_16_0_0 - 1000 edge_5_16_0_0 <= 0
 inactive_no_flow_7_1_0_0: flow_7_1_0_0 - 1000 edge_7_1_0_0 <= 0
 inactive_no_flow_7_2_0_0: flow_7_2_0_0 - 1000 edge_7_2_0_0 <= 0
 inactive_no_flow_7_3_0_0: flow_7_3_0_0 - 1000 edge_7_3_0_0 <= 0
 inactive_no_flow_7_4_0_0: flow_7_4_0_0 - 1000 edge_7_4_0_0 <= 0
 inactive_no_flow_7_5_0_0: flow_7_5_0_0 - 1000 edge_7_5_0_0 <= 0
 inactive_no_flow_7_8_0_0: flow_7_8_0_0 - 1000 edge_7_8_0_0 <= 0
 inactive_no_flow_7_9_0_0: flow_7_9_0_0 - 1000 edge_7_9_0_0 <= 0
 inactive_no_flow_7_11_0_0: flow_7_11_0_0 - 1000 edge_7_11_0_0 <= 0
 inactive_no_flow_7_12_0_0: flow_7_12_0_0 - 1000 edge_7_12_0_0 <= 0
 inactive_no_flow_7_13_0_0: flow_7_13_0_0 - 1000 edge_7_13_0_0 <= 0
 inactive_no_flow_7_14_0_0: flow_7_14_0_0 - 1000 edge_7_14_0_0 <= 0
 inactive_no_flow_7_15_0_0: flow_7_15_0_0 - 1000 edge_7_15_0_0 <= 0
 inactive_no_flow_7_16_0_0: flow_7_16_0_0 - 1000 edge_7_16_0_0 <= 0
 inactive_no_flow_8_1_0_0: flow_8_1_0_0 - 1000 edge_8_1_0_0 <= 0
 inactive_no_flow_8_2_0_0: flow_8_2_0_0 - 1000 edge_8_2_0_0 <= 0
 inactive_no_flow_8_3_0_0: flow_8_3_0_0 - 1000 edge_8_3_0_0 <= 0
 inactive_no_flow_8_4_0_0: flow_8_4_0_0 - 1000 edge_8_4_0_0 <= 0
 inactive_no_flow_8_5_0_0: flow_8_5_0_0 - 1000 edge_8_5_0_0 <= 0
 inactive_no_flow_8_7_0_0: flow_8_7_0_0 - 1000 edge_8_7_0_0 <= 0
 inactive_no_flow_8_9_0_0: flow_8_9_0_0 - 1000 edge_8_9_0_0 <= 0
 inactive_no_flow_8_10_0_0: flow_8_10_0_0 - 1000 edge_8_10_0_0 <= 0
 inactive_no_flow_8_11_0_0: flow_8_11_0_0 - 1000 edge_8_11_0_0 <= 0
 inactive_no_flow_8_12_0_0: flow_8_12_0_0 - 1000 edge_8_12_0_0 <= 0
 inactive_no_flow_8_13_0_0: flow_8_13_0_0 - 1000 edge_8_13_0_0 <= 0
 inactive_no_flow_8_14_0_0: flow_8_14_0_0 - 1000 edge_8_14_0_0 <= 0
 inactive_no_flow_8_15_0_0: flow_8_15_0_0 - 1000 edge_8_15_0_0 <= 0
 inactive_no_flow_8_16_0_0: flow_8_16_0_0 - 1000 edge_8_16_0_0 <= 0
 inactive_no_flow_9_1_0_0: flow_9_1_0_0 - 1000 edge_9_1_0_0 <= 0
 inactive_no_flow_9_2_0_0: flow_9_2_0_0 - 1000 edge_9_2_0_0 <= 0
 inactive_no_flow_9_3_0_0: flow_9_3_0_0 - 1000 edge_9_3_0_0 <= 0
 inactive_no_flow_9_4_0_0: flow_9_4_0_0 - 1000 edge_9_4_0_0 <= 0
 inactive_no_flow_9_5_0_0: flow_9_5_0_0 - 1000 edge_9_5_0_0 <= 0
 inactive_no_flow_9_7_0_0: flow_9_7_0_0 - 1000 edge_9_7_0_0 <= 0
 inactive_no_flow_9_8_0_0: flow_9_8_0_0 - 1000 edge_9_8_0_0 <= 0
 inactive_no_flow_9_9_0_0: flow_9_9_0_0 - 1000 edge_9_9_0_0 <= 0
 inactive_no_flow_9_10_0_0: flow_9_10_0_0 - 1000 edge_9_10_0_0 <= 0
 inactive_no_flow_9_11_0_0: flow_9_11_0_0 - 1000 edge_9_11_0_0 <= 0
 inactive_no_flow_9_12_0_0: flow_9_12_0_0 - 1000 edge_9_12_0_0 <= 0
 inactive_no_flow_9_13_0_0: flow_9_13_0_0 - 1000 edge_9_13_0_0 <= 0
 inactive_no_flow_9_14_0_0: flow_9_14_0_0 - 1000 edge_9_14_0_0 <= 0
 inactive_no_flow_9_15_0_0: flow_9_15_0_0 - 1000 edge_9_15_0_0 <= 0
 inactive_no_flow_9_16_0_0: flow_9_16_0_0 - 1000 edge_9_16_0_0 <= 0
 inactive_no_flow_10_1_0_0: flow_10_1_0_0 - 1000 edge_10_1_0_0 <= 0
 inactive_no_flow_10_2_0_0: flow_10_2_0_0 - 1000 edge_10_2_0_0 <= 0
 inactive_no_flow_10_3_0_0: flow_10_3_0_0 - 1000 edge_10_3_0_0 <= 0
 inactive_no_flow_10_4_0_0: flow_10_4_0_0 - 1000 edge_10_4_0_0 <= 0
 inactive_no_flow_10_5_0_0: flow_10_5_0_0 - 1000 edge_10_5_0_0 <= 0
 inactive_no_flow_10_7_0_0: flow_10_7_0_0 - 1000 edge_10_7_0_0 <= 0
 inactive_no_flow_10_8_0_0: flow_10_8_0_0 - 1000 edge_10_8_0_0 <= 0
 inactive_no_flow_10_9_0_0: flow_10_9_0_0 - 1000 edge_10_9_0_0 <= 0
 inactive_no_flow_10_11_0_0: flow_10_11_0_0 - 1000 edge_10_11_0_0 <= 0
 inactive_no_flow_10_12_0_0: flow_10_12_0_0 - 1000 edge_10_12_0_0 <= 0
 inactive_no_flow_10_13_0_0: flow_10_13_0_0 - 1000 edge_10_13_0_0 <= 0
 inactive_no_flow_10_14_0_0: flow_10_14_0_0 - 1000 edge_10_14_0_0 <= 0
 inactive_no_flow_10_15_0_0: flow_10_15_0_0 - 1000 edge_10_15_0_0 <= 0
 inactive_no_flow_10_16_0_0: flow_10_16_0_0 - 1000 edge_10_16_0_0 <= 0
 inactive_no_flow_11_7_0_0: flow_11_7_0_0 - 1000 edge_11_7_0_0 <= 0
 inactive_no_flow_11_9_0_0: flow_11_9_0_0 - 1000 edge_11_9_0_0 <= 0
 inactive_no_flow_11_12_0_0: flow_11_12_0_0 - 1000 edge_11_12_0_0 <= 0
 inactive_no_flow_11_13_0_0: flow_11_13_0_0 - 1000 edge_11_13_0_0 <= 0
 inactive_no_flow_11_14_0_0: flow_11_14_0_0 - 1000 edge_11_14_0_0 <= 0
 inactive_no_flow_11_15_0_0: flow_11_15_0_0 - 1000 edge_11_15_0_0 <= 0
 inactive_no_flow_12_9_0_0: flow_12_9_0_0 - 1000 edge_12_9_0_0 <= 0
 inactive_no_flow_12_11_0_0: flow_12_11_0_0 - 1000 edge_12_11_0_0 <= 0
 inactive_no_flow_12_13_0_0: flow_12_13_0_0 - 1000 edge_12_13_0_0 <= 0
 inactive_no_flow_12_15_0_0: flow_12_15_0_0 - 1000 edge_12_15_0_0 <= 0
 inactive_no_flow_13_1_0_0: flow_13_1_0_0 - 1000 edge_13_1_0_0 <= 0
 inactive_no_flow_13_2_0_0: flow_13_2_0_0 - 1000 edge_13_2_0_0 <= 0
 inactive_no_flow_13_3_0_0: flow_13_3_0_0 - 1000 edge_13_3_0_0 <= 0
 inactive_no_flow_13_4_0_0: flow_13_4_0_0 - 1000 edge_13_4_0_0 <= 0
 inactive_no_flow_13_5_0_0: flow_13_5_0_0 - 1000 edge_13_5_0_0 <= 0
 inactive_no_flow_13_7_0_0: flow_13_7_0_0 - 1000 edge_13_7_0_0 <= 0
 inactive_no_flow_13_8_0_0: flow_13_8_0_0 - 1000 edge_13_8_0_0 <= 0
 inactive_no_flow_13_9_0_0: flow_13_9_0_0 - 1000 edge_13_9_0_0 <= 0
 inactive_no_flow_13_10_0_0: flow_13_10_0_0 - 1000 edge_13_10_0_0 <= 0
 inactive_no_flow_13_11_0_0: flow_13_11_0_0 - 1000 edge_13_11_0_0 <= 0
 inactive_no_flow_13_12_0_0: flow_13_12_0_0 - 1000 edge_13_12_0_0 <= 0
 inactive_no_flow_13_13_0_0: flow_13_13_0_0 - 1000 edge_13_13_0_0 <= 0
 inactive_no_flow_13_14_0_0: flow_13_14_0_0 - 1000 edge_13_14_0_0 <= 0
 inactive_no_flow_13_15_0_0: flow_13_15_0_0 - 1000 edge_13_15_0_0 <= 0
 inactive_no_flow_13_16_0_0: flow_13_16_0_0 - 1000 edge_13_16_0_0 <= 0
 inactive_no_flow_14_1_0_0: flow_14_1_0_0 - 1000 edge_14_1_0_0 <= 0
 inactive_no_flow_14_2_0_0: flow_14_2_0_0 - 1000 edge_14_2_0_0 <= 0
 inactive_no_flow_14_3_0_0: flow_14_3_0_0 - 1000 edge_14_3_0_0 <= 0
 inactive_no_flow_14_4_0_0: flow_14_4_0_0 - 1000 edge_14_4_0_0 <= 0
 inactive_no_flow_14_5_0_0: flow_14_5_0_0 - 1000 edge_14_5_0_0 <= 0
 inactive_no_flow_14_7_0_0: flow_14_7_0_0 - 1000 edge_14_7_0_0 <= 0
 inactive_no_flow_14_8_0_0: flow_14_8_0_0 - 1000 edge_14_8_0_0 <= 0
 inactive_no_flow_14_9_0_0: flow_14_9_0_0 - 1000 edge_14_9_0_0 <= 0
 inactive_no_flow_14_11_0_0: flow_14_11_0_0 - 1000 edge_14_11_0_0 <= 0
 inactive_no_flow_14_12_0_0: flow_14_12_0_0 - 1000 edge_14_12_0_0 <= 0
 inactive_no_flow_14_13_0_0: flow_14_13_0_0 - 1000 edge_14_13_0_0 <= 0
 inactive_no_flow_14_15_0_0: flow_14_15_0_0 - 1000 edge_14_15_0_0 <= 0
 inactive_no_flow_14_16_0_0: flow_14_16_0_0 - 1000 edge_14_16_0_0 <= 0
 inactive_no_flow_15_1_0_0: flow_15_1_0_0 - 1000 edge_15_1_0_0 <= 0
 inactive_no_flow_15_2_0_0: flow_15_2_0_0 - 1000 edge_15_2_0_0 <= 0
 inactive_no_flow_15_3_0_0: flow_15_3_0_0 - 1000 edge_15_3_0_0 <= 0
 inactive_no_flow_15_4_0_0: flow_15_4_0_0 - 1000 edge_15_4_0_0 <= 0
 inactive_no_flow_15_5_0_0: flow_15_5_0_0 - 1000 edge_15_5_0_0 <= 0
 inactive_no_flow_15_7_0_0: flow_15_7_0_0 - 1000 edge_15_7_0_0 <= 0
 inactive_no_flow_15_8_0_0: flow_15_8_0_0 - 1000 edge_15_8_0_0 <= 0
 inactive_no_flow_15_9_0_0: flow_15_9_0_0 - 1000 edge_15_9_0_0 <= 0
 inactive_no_flow_15_10_0_0: flow_15_10_0_0 - 1000 edge_15_10_0_0 <= 0
 inactive_no_flow_15_11_0_0: flow_15_11_0_0 - 1000 edge_15_11_0_0 <= 0
 inactive_no_flow_15_12_0_0: flow_15_12_0_0 - 1000 edge_15_12_0_0 <= 0
 inactive_no_flow_15_13_0_0: flow_15_13_0_0 - 1000 edge_15_13_0_0 <= 0
 inactive_no_flow_15_14_0_0: flow_15_14_0_0 - 1000 edge_15_14_0_0 <= 0
 inactive_no_flow_15_16_0_0: flow_15_16_0_0 - 1000 edge_15_16_0_0 <= 0
Bounds
Binaries
 edge_0_1_0_0 edge_0_2_0_0 edge_0_3_0_0 edge_0_4_0_0 edge_0_5_0_0
 edge_0_8_0_0 edge_0_9_0_0 edge_0_10_0_0 edge_0_13_0_0 edge_0_14_0_0
 edge_0_15_0_0 edge_1_2_0_0 edge_1_3_0_0 edge_1_4_0_0 edge_1_5_0_0
 edge_1_7_0_0 edge_1_8_0_0 edge_1_9_0_0 edge_1_11_0_0 edge_1_12_0_0
 edge_2_1_0_0 edge_2_3_0_0 edge_2_4_0_0 edge_2_5_0_0 edge_2_7_0_0
 edge_2_8_0_0 edge_2_9_0_0 edge_2_10_0_0 edge_2_11_0_0 edge_2_13_0_0
 edge_2_14_0_0 edge_2_15_0_0 edge_2_16_0_0 edge_3_1_0_0 edge_3_2_0_0
 edge_3_4_0_0 edge_3_5_0_0 edge_3_7_0_0 edge_3_8_0_0 edge_3_9_0_0
 edge_3_10_0_0 edge_3_11_0_0 edge_3_12_0_0 edge_3_13_0_0 edge_3_14_0_0
 edge_3_15_0_0 edge_3_16_0_0 edge_4_1_0_0 edge_4_3_0_0 edge_4_5_0_0
 edge_4_7_0_0 edge_4_8_0_0 edge_4_9_0_0 edge_4_14_0_0 edge_5_1_0_0
 edge_5_2_0_0 edge_5_3_0_0 edge_5_4_0_0 edge_5_7_0_0 edge_5_8_0_0
 edge_5_9_0_0 edge_5_10_0_0 edge_5_11_0_0 edge_5_12_0_0 edge_5_13_0_0
 edge_5_14_0_0 edge_5_15_0_0 edge_5_16_0_0 edge_7_1_0_0 edge_7_2_0_0
 edge_7_3_0_0 edge_7_4_0_0 edge_7_5_0_0 edge_7_8_0_0 edge_7_9_0_0
 edge_7_11_0_0 edge_7_12_0_0 edge_7_13_0_0 edge_7_14_0_0 edge_7_15_0_0
 edge_7_16_0_0 edge_8_1_0_0 edge_8_2_0_0 edge_8_3_0_0 edge_8_4_0_0
 edge_8_5_0_0 edge_8_7_0_0 edge_8_9_0_0 edge_8_10_0_0 edge_8_11_0_0
 edge_8_12_0_0 edge_8_13_0_0 edge_8_14_0_0 edge_8_15_0_0 edge_8_16_0_0
 edge_9_1_0_0 edge_9_2_0_0 edge_9_3_0_0 edge_9_4_0_0 edge_9_5_0_0
 edge_9_7_0_0 edge_9_8_0_0 edge_9_9_0_0 edge_9_10_0_0 edge_9_11_0_0
 edge_9_12_0_0 edge_9_13_0_0 edge_9_14_0_0 edge_9_15_0_0 edge_9_16_0_0
 edge_10_1_0_0 edge_10_2_0_0 edge_10_3_0_0 edge_10_4_0_0 edge_10_5_0_0
 edge_10_7_0_0 edge_10_8_0_0 edge_10_9_0_0 edge_10_11_0_0 edge_10_12_0_0
 edge_10_13_0_0 edge_10_14_0_0 edge_10_15_0_0 edge_10_16_0_0 edge_11_7_0_0
 edge_11_9_0_0 edge_11_12_0_0 edge_11_13_0_0 edge_11_14_0_0 edge_11_15_0_0
 edge_12_9_0_0 edge_12_11_0_0 edge_12_13_0_0 edge_12_15_0_0 edge_13_1_0_0
 edge_13_2_0_0 edge_13_3_0_0 edge_13_4_0_0 edge_13_5_0_0 edge_13_7_0_0
 edge_13_8_0_0 edge_13_9_0_0 edge_13_10_0_0 edge_13_11_0_0 edge_13_12_0_0
 edge_13_13_0_0 edge_13_14_0_0 edge_13_15_0_0 edge_13_16_0_0 edge_14_1_0_0
 edge_14_2_0_0 edge_14_3_0_0 edge_14_4_0_0 edge_14_5_0_0 edge_14_7_0_0
 edge_14_8_0_0 edge_14_9_0_0 edge_14_11_0_0 edge_14_12_0_0 edge_14_13_0_0
 edge_14_15_0_0 edge_14_16_0_0 edge_15_1_0_0 edge_15_2_0_0 edge_15_3_0_0
 edge_15_4_0_0 edge_15_5_0_0 edge_15_7_0_0 edge_15_8_0_0 edge_15_9_0_0
 edge_15_10_0_0 edge_15_11_0_0 edge_15_12_0_0 edge_15_13_0_0 edge_15_14_0_0
 edge_15_16_0_0
End
